set PLANT := 1 2 3;
##set sub_p := 1 2;

set SIZE := large mediam small;

param cs := large 20
            mediam 15
            small 12;
param cp := 1 9000
            2 8000
            3 3500;
param profits := large 12
                mediam 10
                small 9;
param capp := 1 500
            2 600
            3 300;
param bfs := large 600
            mediam 800
            small 500;